\ LP format - for model browsing. Use MPS format to capture full model detail.
\ Signature: 0xe95b939866d2118
Minimize
  - 0.1174000517329443 y[0,2] - 0.2475755642529606 y[0,8]
   - 0.2475755642529606 y[1,7] - 0.1174000517329443 y[2,3]
   - 0.1174000517329443 y[2,1] - 0.2475755642529606 y[2,9]
   - 0.2475755642529606 y[3,9] - 0.2475755642529606 y[4,9]
   - 0.1174000517329443 y[5,6] - 0.1174000517329443 y[6,4]
   - 0.2475755642529606 y[6,8] - 0.2475755642529606 y[8,7]
   - 0.2475755642529606 y[9,7] - 0.2459821576450979 y[10,3]
   - 0.2459821576450979 y[11,0] - 0.2459821576450979 y[12,0]
   - 0.2459821576450979 y[13,0] - 0.2459821576450979 y[14,0]
   - 0.2459821576450979 y[15,6] - 0.1058060015872633 y[17,12]
   - 0.2832362247817339 y[17,0] - 0.2832362247817339 y[17,2]
   - 0.2832362247817339 y[17,1] - 0.1058060015872633 y[19,13]
   - 0.2832362247817339 y[19,0] - 0.2832362247817339 y[19,1]
   - 0.1058060015872633 y[20,10] - 0.2832362247817339 y[20,3]
   - 0.1058060015872633 y[21,12] - 0.2832362247817339 y[21,0]
   - 0.2832362247817339 y[22,2] - 0.2832362247817339 y[25,0]
   - 0.2832362247817339 y[25,2] - 0.1058060015872633 y[26,13]
   - 0.2832362247817339 y[26,0] - 0.2832362247817339 y[26,2]
   - 0.2832362247817339 y[27,0] - 0.2832362247817339 y[27,2]
   - 0.1058060015872633 y[28,13] - 0.2832362247817339 y[28,2]
   - 0.2832362247817339 y[28,0] - 0.1058060015872633 y[30,12]
   - 0.2832362247817339 y[30,0] - 0.2832362247817339 y[31,0]
   - 0.1058060015872633 y[32,13] - 0.2832362247817339 y[32,0]
   - 0.2832362247817339 y[33,0] - 0.1058060015872633 y[34,36]
   - 0.1058060015872633 y[34,35] - 0.2832362247817339 y[34,0]
   - 0.2832362247817339 y[35,0] - 0.1058060015872633 y[36,11]
   - 0.2832362247817339 y[36,0] - 0.1058060015872633 y[37,12]
   - 0.2832362247817339 y[37,0] - 0.1058060015872633 y[38,13]
   - 0.2832362247817339 y[38,0] - 0.1058060015872633 y[39,12]
   - 0.2832362247817339 y[39,0] - 0.1058060015872633 y[40,42]
   - 0.1058060015872633 y[40,41] - 0.2832362247817339 y[40,5]
   - 0.2832362247817339 y[40,6] - 0.2832362247817339 y[41,6]
   - 0.1058060015872633 y[42,15] - 0.2832362247817339 y[42,6]
   - 0.2832362247817339 y[43,5] + 14.62252271377621 Constant
Subject To
 (1)microservice-belonging[0]: x[0,0] + x[0,1] = 1
 (1)microservice-belonging[1]: x[1,0] + x[1,1] = 1
 (1)microservice-belonging[2]: x[2,0] + x[2,1] = 1
 (1)microservice-belonging[3]: x[3,0] + x[3,1] = 1
 (1)microservice-belonging[4]: x[4,0] + x[4,1] = 1
 (1)microservice-belonging[5]: x[5,0] + x[5,1] = 1
 (1)microservice-belonging[6]: x[6,0] + x[6,1] = 1
 (1)microservice-belonging[7]: x[7,0] + x[7,1] = 1
 (1)microservice-belonging[8]: x[8,0] + x[8,1] = 1
 (1)microservice-belonging[9]: x[9,0] + x[9,1] = 1
 (1)microservice-belonging[10]: x[10,0] + x[10,1] = 1
 (1)microservice-belonging[11]: x[11,0] + x[11,1] = 1
 (1)microservice-belonging[12]: x[12,0] + x[12,1] = 1
 (1)microservice-belonging[13]: x[13,0] + x[13,1] = 1
 (1)microservice-belonging[14]: x[14,0] + x[14,1] = 1
 (1)microservice-belonging[15]: x[15,0] + x[15,1] = 1
 (1)microservice-belonging[17]: x[17,0] + x[17,1] = 1
 (1)microservice-belonging[19]: x[19,0] + x[19,1] = 1
 (1)microservice-belonging[20]: x[20,0] + x[20,1] = 1
 (1)microservice-belonging[21]: x[21,0] + x[21,1] = 1
 (1)microservice-belonging[22]: x[22,0] + x[22,1] = 1
 (1)microservice-belonging[25]: x[25,0] + x[25,1] = 1
 (1)microservice-belonging[26]: x[26,0] + x[26,1] = 1
 (1)microservice-belonging[27]: x[27,0] + x[27,1] = 1
 (1)microservice-belonging[28]: x[28,0] + x[28,1] = 1
 (1)microservice-belonging[30]: x[30,0] + x[30,1] = 1
 (1)microservice-belonging[31]: x[31,0] + x[31,1] = 1
 (1)microservice-belonging[32]: x[32,0] + x[32,1] = 1
 (1)microservice-belonging[33]: x[33,0] + x[33,1] = 1
 (1)microservice-belonging[34]: x[34,0] + x[34,1] = 1
 (1)microservice-belonging[35]: x[35,0] + x[35,1] = 1
 (1)microservice-belonging[36]: x[36,0] + x[36,1] = 1
 (1)microservice-belonging[37]: x[37,0] + x[37,1] = 1
 (1)microservice-belonging[38]: x[38,0] + x[38,1] = 1
 (1)microservice-belonging[39]: x[39,0] + x[39,1] = 1
 (1)microservice-belonging[40]: x[40,0] + x[40,1] = 1
 (1)microservice-belonging[41]: x[41,0] + x[41,1] = 1
 (1)microservice-belonging[42]: x[42,0] + x[42,1] = 1
 (1)microservice-belonging[43]: x[43,0] + x[43,1] = 1
 (2)microservice-composition[0]: x[10,0] + x[11,0] + x[12,0] + x[13,0]
   + x[14,0] + x[15,0] + x[17,0] + x[19,0] + x[20,0] + x[21,0] + x[22,0]
   + x[25,0] + x[26,0] + x[27,0] + x[28,0] + x[30,0] + x[31,0] + x[32,0]
   + x[33,0] + x[34,0] + x[35,0] + x[36,0] + x[37,0] + x[38,0] + x[39,0]
   + x[40,0] + x[41,0] + x[42,0] + x[43,0] >= 1
 (2)microservice-composition[1]: x[10,1] + x[11,1] + x[12,1] + x[13,1]
   + x[14,1] + x[15,1] + x[17,1] + x[19,1] + x[20,1] + x[21,1] + x[22,1]
   + x[25,1] + x[26,1] + x[27,1] + x[28,1] + x[30,1] + x[31,1] + x[32,1]
   + x[33,1] + x[34,1] + x[35,1] + x[36,1] + x[37,1] + x[38,1] + x[39,1]
   + x[40,1] + x[41,1] + x[42,1] + x[43,1] >= 1
 (3)bonding-z-to-x[0,2,0]: - x[0,0] + z[0,2,0] <= 0
 (3)bonding-z-to-x[0,2,1]: - x[0,1] + z[0,2,1] <= 0
 (3)bonding-z-to-x[0,8,0]: - x[0,0] + z[0,8,0] <= 0
 (3)bonding-z-to-x[0,8,1]: - x[0,1] + z[0,8,1] <= 0
 (3)bonding-z-to-x[1,7,0]: - x[1,0] + z[1,7,0] <= 0
 (3)bonding-z-to-x[1,7,1]: - x[1,1] + z[1,7,1] <= 0
 (3)bonding-z-to-x[2,3,0]: - x[2,0] + z[2,3,0] <= 0
 (3)bonding-z-to-x[2,3,1]: - x[2,1] + z[2,3,1] <= 0
 (3)bonding-z-to-x[2,1,0]: - x[2,0] + z[2,1,0] <= 0
 (3)bonding-z-to-x[2,1,1]: - x[2,1] + z[2,1,1] <= 0
 (3)bonding-z-to-x[2,9,0]: - x[2,0] + z[2,9,0] <= 0
 (3)bonding-z-to-x[2,9,1]: - x[2,1] + z[2,9,1] <= 0
 (3)bonding-z-to-x[3,9,0]: - x[3,0] + z[3,9,0] <= 0
 (3)bonding-z-to-x[3,9,1]: - x[3,1] + z[3,9,1] <= 0
 (3)bonding-z-to-x[4,9,0]: - x[4,0] + z[4,9,0] <= 0
 (3)bonding-z-to-x[4,9,1]: - x[4,1] + z[4,9,1] <= 0
 (3)bonding-z-to-x[5,6,0]: - x[5,0] + z[5,6,0] <= 0
 (3)bonding-z-to-x[5,6,1]: - x[5,1] + z[5,6,1] <= 0
 (3)bonding-z-to-x[6,4,0]: - x[6,0] + z[6,4,0] <= 0
 (3)bonding-z-to-x[6,4,1]: - x[6,1] + z[6,4,1] <= 0
 (3)bonding-z-to-x[6,8,0]: - x[6,0] + z[6,8,0] <= 0
 (3)bonding-z-to-x[6,8,1]: - x[6,1] + z[6,8,1] <= 0
 (3)bonding-z-to-x[8,7,0]: - x[8,0] + z[8,7,0] <= 0
 (3)bonding-z-to-x[8,7,1]: - x[8,1] + z[8,7,1] <= 0
 (3)bonding-z-to-x[9,7,0]: - x[9,0] + z[9,7,0] <= 0
 (3)bonding-z-to-x[9,7,1]: - x[9,1] + z[9,7,1] <= 0
 (3)bonding-z-to-x[10,3,0]: - x[10,0] + z[10,3,0] <= 0
 (3)bonding-z-to-x[10,3,1]: - x[10,1] + z[10,3,1] <= 0
 (3)bonding-z-to-x[11,0,0]: - x[11,0] + z[11,0,0] <= 0
 (3)bonding-z-to-x[11,0,1]: - x[11,1] + z[11,0,1] <= 0
 (3)bonding-z-to-x[12,0,0]: - x[12,0] + z[12,0,0] <= 0
 (3)bonding-z-to-x[12,0,1]: - x[12,1] + z[12,0,1] <= 0
 (3)bonding-z-to-x[13,0,0]: - x[13,0] + z[13,0,0] <= 0
 (3)bonding-z-to-x[13,0,1]: - x[13,1] + z[13,0,1] <= 0
 (3)bonding-z-to-x[14,0,0]: - x[14,0] + z[14,0,0] <= 0
 (3)bonding-z-to-x[14,0,1]: - x[14,1] + z[14,0,1] <= 0
 (3)bonding-z-to-x[15,6,0]: - x[15,0] + z[15,6,0] <= 0
 (3)bonding-z-to-x[15,6,1]: - x[15,1] + z[15,6,1] <= 0
 (3)bonding-z-to-x[17,12,0]: - x[17,0] + z[17,12,0] <= 0
 (3)bonding-z-to-x[17,12,1]: - x[17,1] + z[17,12,1] <= 0
 (3)bonding-z-to-x[17,0,0]: - x[17,0] + z[17,0,0] <= 0
 (3)bonding-z-to-x[17,0,1]: - x[17,1] + z[17,0,1] <= 0
 (3)bonding-z-to-x[17,2,0]: - x[17,0] + z[17,2,0] <= 0
 (3)bonding-z-to-x[17,2,1]: - x[17,1] + z[17,2,1] <= 0
 (3)bonding-z-to-x[17,1,0]: - x[17,0] + z[17,1,0] <= 0
 (3)bonding-z-to-x[17,1,1]: - x[17,1] + z[17,1,1] <= 0
 (3)bonding-z-to-x[19,13,0]: - x[19,0] + z[19,13,0] <= 0
 (3)bonding-z-to-x[19,13,1]: - x[19,1] + z[19,13,1] <= 0
 (3)bonding-z-to-x[19,0,0]: - x[19,0] + z[19,0,0] <= 0
 (3)bonding-z-to-x[19,0,1]: - x[19,1] + z[19,0,1] <= 0
 (3)bonding-z-to-x[19,1,0]: - x[19,0] + z[19,1,0] <= 0
 (3)bonding-z-to-x[19,1,1]: - x[19,1] + z[19,1,1] <= 0
 (3)bonding-z-to-x[20,10,0]: - x[20,0] + z[20,10,0] <= 0
 (3)bonding-z-to-x[20,10,1]: - x[20,1] + z[20,10,1] <= 0
 (3)bonding-z-to-x[20,3,0]: - x[20,0] + z[20,3,0] <= 0
 (3)bonding-z-to-x[20,3,1]: - x[20,1] + z[20,3,1] <= 0
 (3)bonding-z-to-x[21,12,0]: - x[21,0] + z[21,12,0] <= 0
 (3)bonding-z-to-x[21,12,1]: - x[21,1] + z[21,12,1] <= 0
 (3)bonding-z-to-x[21,0,0]: - x[21,0] + z[21,0,0] <= 0
 (3)bonding-z-to-x[21,0,1]: - x[21,1] + z[21,0,1] <= 0
 (3)bonding-z-to-x[22,2,0]: - x[22,0] + z[22,2,0] <= 0
 (3)bonding-z-to-x[22,2,1]: - x[22,1] + z[22,2,1] <= 0
 (3)bonding-z-to-x[25,0,0]: - x[25,0] + z[25,0,0] <= 0
 (3)bonding-z-to-x[25,0,1]: - x[25,1] + z[25,0,1] <= 0
 (3)bonding-z-to-x[25,2,0]: - x[25,0] + z[25,2,0] <= 0
 (3)bonding-z-to-x[25,2,1]: - x[25,1] + z[25,2,1] <= 0
 (3)bonding-z-to-x[26,13,0]: - x[26,0] + z[26,13,0] <= 0
 (3)bonding-z-to-x[26,13,1]: - x[26,1] + z[26,13,1] <= 0
 (3)bonding-z-to-x[26,0,0]: - x[26,0] + z[26,0,0] <= 0
 (3)bonding-z-to-x[26,0,1]: - x[26,1] + z[26,0,1] <= 0
 (3)bonding-z-to-x[26,2,0]: - x[26,0] + z[26,2,0] <= 0
 (3)bonding-z-to-x[26,2,1]: - x[26,1] + z[26,2,1] <= 0
 (3)bonding-z-to-x[27,0,0]: - x[27,0] + z[27,0,0] <= 0
 (3)bonding-z-to-x[27,0,1]: - x[27,1] + z[27,0,1] <= 0
 (3)bonding-z-to-x[27,2,0]: - x[27,0] + z[27,2,0] <= 0
 (3)bonding-z-to-x[27,2,1]: - x[27,1] + z[27,2,1] <= 0
 (3)bonding-z-to-x[28,13,0]: - x[28,0] + z[28,13,0] <= 0
 (3)bonding-z-to-x[28,13,1]: - x[28,1] + z[28,13,1] <= 0
 (3)bonding-z-to-x[28,2,0]: - x[28,0] + z[28,2,0] <= 0
 (3)bonding-z-to-x[28,2,1]: - x[28,1] + z[28,2,1] <= 0
 (3)bonding-z-to-x[28,0,0]: - x[28,0] + z[28,0,0] <= 0
 (3)bonding-z-to-x[28,0,1]: - x[28,1] + z[28,0,1] <= 0
 (3)bonding-z-to-x[30,12,0]: - x[30,0] + z[30,12,0] <= 0
 (3)bonding-z-to-x[30,12,1]: - x[30,1] + z[30,12,1] <= 0
 (3)bonding-z-to-x[30,0,0]: - x[30,0] + z[30,0,0] <= 0
 (3)bonding-z-to-x[30,0,1]: - x[30,1] + z[30,0,1] <= 0
 (3)bonding-z-to-x[31,0,0]: - x[31,0] + z[31,0,0] <= 0
 (3)bonding-z-to-x[31,0,1]: - x[31,1] + z[31,0,1] <= 0
 (3)bonding-z-to-x[32,13,0]: - x[32,0] + z[32,13,0] <= 0
 (3)bonding-z-to-x[32,13,1]: - x[32,1] + z[32,13,1] <= 0
 (3)bonding-z-to-x[32,0,0]: - x[32,0] + z[32,0,0] <= 0
 (3)bonding-z-to-x[32,0,1]: - x[32,1] + z[32,0,1] <= 0
 (3)bonding-z-to-x[33,0,0]: - x[33,0] + z[33,0,0] <= 0
 (3)bonding-z-to-x[33,0,1]: - x[33,1] + z[33,0,1] <= 0
 (3)bonding-z-to-x[34,36,0]: - x[34,0] + z[34,36,0] <= 0
 (3)bonding-z-to-x[34,36,1]: - x[34,1] + z[34,36,1] <= 0
 (3)bonding-z-to-x[34,35,0]: - x[34,0] + z[34,35,0] <= 0
 (3)bonding-z-to-x[34,35,1]: - x[34,1] + z[34,35,1] <= 0
 (3)bonding-z-to-x[34,0,0]: - x[34,0] + z[34,0,0] <= 0
 (3)bonding-z-to-x[34,0,1]: - x[34,1] + z[34,0,1] <= 0
 (3)bonding-z-to-x[35,0,0]: - x[35,0] + z[35,0,0] <= 0
 (3)bonding-z-to-x[35,0,1]: - x[35,1] + z[35,0,1] <= 0
 (3)bonding-z-to-x[36,11,0]: - x[36,0] + z[36,11,0] <= 0
 (3)bonding-z-to-x[36,11,1]: - x[36,1] + z[36,11,1] <= 0
 (3)bonding-z-to-x[36,0,0]: - x[36,0] + z[36,0,0] <= 0
 (3)bonding-z-to-x[36,0,1]: - x[36,1] + z[36,0,1] <= 0
 (3)bonding-z-to-x[37,12,0]: - x[37,0] + z[37,12,0] <= 0
 (3)bonding-z-to-x[37,12,1]: - x[37,1] + z[37,12,1] <= 0
 (3)bonding-z-to-x[37,0,0]: - x[37,0] + z[37,0,0] <= 0
 (3)bonding-z-to-x[37,0,1]: - x[37,1] + z[37,0,1] <= 0
 (3)bonding-z-to-x[38,13,0]: - x[38,0] + z[38,13,0] <= 0
 (3)bonding-z-to-x[38,13,1]: - x[38,1] + z[38,13,1] <= 0
 (3)bonding-z-to-x[38,0,0]: - x[38,0] + z[38,0,0] <= 0
 (3)bonding-z-to-x[38,0,1]: - x[38,1] + z[38,0,1] <= 0
 (3)bonding-z-to-x[39,12,0]: - x[39,0] + z[39,12,0] <= 0
 (3)bonding-z-to-x[39,12,1]: - x[39,1] + z[39,12,1] <= 0
 (3)bonding-z-to-x[39,0,0]: - x[39,0] + z[39,0,0] <= 0
 (3)bonding-z-to-x[39,0,1]: - x[39,1] + z[39,0,1] <= 0
 (3)bonding-z-to-x[40,42,0]: - x[40,0] + z[40,42,0] <= 0
 (3)bonding-z-to-x[40,42,1]: - x[40,1] + z[40,42,1] <= 0
 (3)bonding-z-to-x[40,41,0]: - x[40,0] + z[40,41,0] <= 0
 (3)bonding-z-to-x[40,41,1]: - x[40,1] + z[40,41,1] <= 0
 (3)bonding-z-to-x[40,5,0]: - x[40,0] + z[40,5,0] <= 0
 (3)bonding-z-to-x[40,5,1]: - x[40,1] + z[40,5,1] <= 0
 (3)bonding-z-to-x[40,6,0]: - x[40,0] + z[40,6,0] <= 0
 (3)bonding-z-to-x[40,6,1]: - x[40,1] + z[40,6,1] <= 0
 (3)bonding-z-to-x[41,6,0]: - x[41,0] + z[41,6,0] <= 0
 (3)bonding-z-to-x[41,6,1]: - x[41,1] + z[41,6,1] <= 0
 (3)bonding-z-to-x[42,15,0]: - x[42,0] + z[42,15,0] <= 0
 (3)bonding-z-to-x[42,15,1]: - x[42,1] + z[42,15,1] <= 0
 (3)bonding-z-to-x[42,6,0]: - x[42,0] + z[42,6,0] <= 0
 (3)bonding-z-to-x[42,6,1]: - x[42,1] + z[42,6,1] <= 0
 (3)bonding-z-to-x[43,5,0]: - x[43,0] + z[43,5,0] <= 0
 (3)bonding-z-to-x[43,5,1]: - x[43,1] + z[43,5,1] <= 0
 (4)bonding-z-to-x[0,2,0]: - x[2,0] + z[0,2,0] <= 0
 (4)bonding-z-to-x[0,2,1]: - x[2,1] + z[0,2,1] <= 0
 (4)bonding-z-to-x[0,8,0]: - x[8,0] + z[0,8,0] <= 0
 (4)bonding-z-to-x[0,8,1]: - x[8,1] + z[0,8,1] <= 0
 (4)bonding-z-to-x[1,7,0]: - x[7,0] + z[1,7,0] <= 0
 (4)bonding-z-to-x[1,7,1]: - x[7,1] + z[1,7,1] <= 0
 (4)bonding-z-to-x[2,3,0]: - x[3,0] + z[2,3,0] <= 0
 (4)bonding-z-to-x[2,3,1]: - x[3,1] + z[2,3,1] <= 0
 (4)bonding-z-to-x[2,1,0]: - x[1,0] + z[2,1,0] <= 0
 (4)bonding-z-to-x[2,1,1]: - x[1,1] + z[2,1,1] <= 0
 (4)bonding-z-to-x[2,9,0]: - x[9,0] + z[2,9,0] <= 0
 (4)bonding-z-to-x[2,9,1]: - x[9,1] + z[2,9,1] <= 0
 (4)bonding-z-to-x[3,9,0]: - x[9,0] + z[3,9,0] <= 0
 (4)bonding-z-to-x[3,9,1]: - x[9,1] + z[3,9,1] <= 0
 (4)bonding-z-to-x[4,9,0]: - x[9,0] + z[4,9,0] <= 0
 (4)bonding-z-to-x[4,9,1]: - x[9,1] + z[4,9,1] <= 0
 (4)bonding-z-to-x[5,6,0]: - x[6,0] + z[5,6,0] <= 0
 (4)bonding-z-to-x[5,6,1]: - x[6,1] + z[5,6,1] <= 0
 (4)bonding-z-to-x[6,4,0]: - x[4,0] + z[6,4,0] <= 0
 (4)bonding-z-to-x[6,4,1]: - x[4,1] + z[6,4,1] <= 0
 (4)bonding-z-to-x[6,8,0]: - x[8,0] + z[6,8,0] <= 0
 (4)bonding-z-to-x[6,8,1]: - x[8,1] + z[6,8,1] <= 0
 (4)bonding-z-to-x[8,7,0]: - x[7,0] + z[8,7,0] <= 0
 (4)bonding-z-to-x[8,7,1]: - x[7,1] + z[8,7,1] <= 0
 (4)bonding-z-to-x[9,7,0]: - x[7,0] + z[9,7,0] <= 0
 (4)bonding-z-to-x[9,7,1]: - x[7,1] + z[9,7,1] <= 0
 (4)bonding-z-to-x[10,3,0]: - x[3,0] + z[10,3,0] <= 0
 (4)bonding-z-to-x[10,3,1]: - x[3,1] + z[10,3,1] <= 0
 (4)bonding-z-to-x[11,0,0]: - x[0,0] + z[11,0,0] <= 0
 (4)bonding-z-to-x[11,0,1]: - x[0,1] + z[11,0,1] <= 0
 (4)bonding-z-to-x[12,0,0]: - x[0,0] + z[12,0,0] <= 0
 (4)bonding-z-to-x[12,0,1]: - x[0,1] + z[12,0,1] <= 0
 (4)bonding-z-to-x[13,0,0]: - x[0,0] + z[13,0,0] <= 0
 (4)bonding-z-to-x[13,0,1]: - x[0,1] + z[13,0,1] <= 0
 (4)bonding-z-to-x[14,0,0]: - x[0,0] + z[14,0,0] <= 0
 (4)bonding-z-to-x[14,0,1]: - x[0,1] + z[14,0,1] <= 0
 (4)bonding-z-to-x[15,6,0]: - x[6,0] + z[15,6,0] <= 0
 (4)bonding-z-to-x[15,6,1]: - x[6,1] + z[15,6,1] <= 0
 (4)bonding-z-to-x[17,12,0]: - x[12,0] + z[17,12,0] <= 0
 (4)bonding-z-to-x[17,12,1]: - x[12,1] + z[17,12,1] <= 0
 (4)bonding-z-to-x[17,0,0]: - x[0,0] + z[17,0,0] <= 0
 (4)bonding-z-to-x[17,0,1]: - x[0,1] + z[17,0,1] <= 0
 (4)bonding-z-to-x[17,2,0]: - x[2,0] + z[17,2,0] <= 0
 (4)bonding-z-to-x[17,2,1]: - x[2,1] + z[17,2,1] <= 0
 (4)bonding-z-to-x[17,1,0]: - x[1,0] + z[17,1,0] <= 0
 (4)bonding-z-to-x[17,1,1]: - x[1,1] + z[17,1,1] <= 0
 (4)bonding-z-to-x[19,13,0]: - x[13,0] + z[19,13,0] <= 0
 (4)bonding-z-to-x[19,13,1]: - x[13,1] + z[19,13,1] <= 0
 (4)bonding-z-to-x[19,0,0]: - x[0,0] + z[19,0,0] <= 0
 (4)bonding-z-to-x[19,0,1]: - x[0,1] + z[19,0,1] <= 0
 (4)bonding-z-to-x[19,1,0]: - x[1,0] + z[19,1,0] <= 0
 (4)bonding-z-to-x[19,1,1]: - x[1,1] + z[19,1,1] <= 0
 (4)bonding-z-to-x[20,10,0]: - x[10,0] + z[20,10,0] <= 0
 (4)bonding-z-to-x[20,10,1]: - x[10,1] + z[20,10,1] <= 0
 (4)bonding-z-to-x[20,3,0]: - x[3,0] + z[20,3,0] <= 0
 (4)bonding-z-to-x[20,3,1]: - x[3,1] + z[20,3,1] <= 0
 (4)bonding-z-to-x[21,12,0]: - x[12,0] + z[21,12,0] <= 0
 (4)bonding-z-to-x[21,12,1]: - x[12,1] + z[21,12,1] <= 0
 (4)bonding-z-to-x[21,0,0]: - x[0,0] + z[21,0,0] <= 0
 (4)bonding-z-to-x[21,0,1]: - x[0,1] + z[21,0,1] <= 0
 (4)bonding-z-to-x[22,2,0]: - x[2,0] + z[22,2,0] <= 0
 (4)bonding-z-to-x[22,2,1]: - x[2,1] + z[22,2,1] <= 0
 (4)bonding-z-to-x[25,0,0]: - x[0,0] + z[25,0,0] <= 0
 (4)bonding-z-to-x[25,0,1]: - x[0,1] + z[25,0,1] <= 0
 (4)bonding-z-to-x[25,2,0]: - x[2,0] + z[25,2,0] <= 0
 (4)bonding-z-to-x[25,2,1]: - x[2,1] + z[25,2,1] <= 0
 (4)bonding-z-to-x[26,13,0]: - x[13,0] + z[26,13,0] <= 0
 (4)bonding-z-to-x[26,13,1]: - x[13,1] + z[26,13,1] <= 0
 (4)bonding-z-to-x[26,0,0]: - x[0,0] + z[26,0,0] <= 0
 (4)bonding-z-to-x[26,0,1]: - x[0,1] + z[26,0,1] <= 0
 (4)bonding-z-to-x[26,2,0]: - x[2,0] + z[26,2,0] <= 0
 (4)bonding-z-to-x[26,2,1]: - x[2,1] + z[26,2,1] <= 0
 (4)bonding-z-to-x[27,0,0]: - x[0,0] + z[27,0,0] <= 0
 (4)bonding-z-to-x[27,0,1]: - x[0,1] + z[27,0,1] <= 0
 (4)bonding-z-to-x[27,2,0]: - x[2,0] + z[27,2,0] <= 0
 (4)bonding-z-to-x[27,2,1]: - x[2,1] + z[27,2,1] <= 0
 (4)bonding-z-to-x[28,13,0]: - x[13,0] + z[28,13,0] <= 0
 (4)bonding-z-to-x[28,13,1]: - x[13,1] + z[28,13,1] <= 0
 (4)bonding-z-to-x[28,2,0]: - x[2,0] + z[28,2,0] <= 0
 (4)bonding-z-to-x[28,2,1]: - x[2,1] + z[28,2,1] <= 0
 (4)bonding-z-to-x[28,0,0]: - x[0,0] + z[28,0,0] <= 0
 (4)bonding-z-to-x[28,0,1]: - x[0,1] + z[28,0,1] <= 0
 (4)bonding-z-to-x[30,12,0]: - x[12,0] + z[30,12,0] <= 0
 (4)bonding-z-to-x[30,12,1]: - x[12,1] + z[30,12,1] <= 0
 (4)bonding-z-to-x[30,0,0]: - x[0,0] + z[30,0,0] <= 0
 (4)bonding-z-to-x[30,0,1]: - x[0,1] + z[30,0,1] <= 0
 (4)bonding-z-to-x[31,0,0]: - x[0,0] + z[31,0,0] <= 0
 (4)bonding-z-to-x[31,0,1]: - x[0,1] + z[31,0,1] <= 0
 (4)bonding-z-to-x[32,13,0]: - x[13,0] + z[32,13,0] <= 0
 (4)bonding-z-to-x[32,13,1]: - x[13,1] + z[32,13,1] <= 0
 (4)bonding-z-to-x[32,0,0]: - x[0,0] + z[32,0,0] <= 0
 (4)bonding-z-to-x[32,0,1]: - x[0,1] + z[32,0,1] <= 0
 (4)bonding-z-to-x[33,0,0]: - x[0,0] + z[33,0,0] <= 0
 (4)bonding-z-to-x[33,0,1]: - x[0,1] + z[33,0,1] <= 0
 (4)bonding-z-to-x[34,36,0]: - x[36,0] + z[34,36,0] <= 0
 (4)bonding-z-to-x[34,36,1]: - x[36,1] + z[34,36,1] <= 0
 (4)bonding-z-to-x[34,35,0]: - x[35,0] + z[34,35,0] <= 0
 (4)bonding-z-to-x[34,35,1]: - x[35,1] + z[34,35,1] <= 0
 (4)bonding-z-to-x[34,0,0]: - x[0,0] + z[34,0,0] <= 0
 (4)bonding-z-to-x[34,0,1]: - x[0,1] + z[34,0,1] <= 0
 (4)bonding-z-to-x[35,0,0]: - x[0,0] + z[35,0,0] <= 0
 (4)bonding-z-to-x[35,0,1]: - x[0,1] + z[35,0,1] <= 0
 (4)bonding-z-to-x[36,11,0]: - x[11,0] + z[36,11,0] <= 0
 (4)bonding-z-to-x[36,11,1]: - x[11,1] + z[36,11,1] <= 0
 (4)bonding-z-to-x[36,0,0]: - x[0,0] + z[36,0,0] <= 0
 (4)bonding-z-to-x[36,0,1]: - x[0,1] + z[36,0,1] <= 0
 (4)bonding-z-to-x[37,12,0]: - x[12,0] + z[37,12,0] <= 0
 (4)bonding-z-to-x[37,12,1]: - x[12,1] + z[37,12,1] <= 0
 (4)bonding-z-to-x[37,0,0]: - x[0,0] + z[37,0,0] <= 0
 (4)bonding-z-to-x[37,0,1]: - x[0,1] + z[37,0,1] <= 0
 (4)bonding-z-to-x[38,13,0]: - x[13,0] + z[38,13,0] <= 0
 (4)bonding-z-to-x[38,13,1]: - x[13,1] + z[38,13,1] <= 0
 (4)bonding-z-to-x[38,0,0]: - x[0,0] + z[38,0,0] <= 0
 (4)bonding-z-to-x[38,0,1]: - x[0,1] + z[38,0,1] <= 0
 (4)bonding-z-to-x[39,12,0]: - x[12,0] + z[39,12,0] <= 0
 (4)bonding-z-to-x[39,12,1]: - x[12,1] + z[39,12,1] <= 0
 (4)bonding-z-to-x[39,0,0]: - x[0,0] + z[39,0,0] <= 0
 (4)bonding-z-to-x[39,0,1]: - x[0,1] + z[39,0,1] <= 0
 (4)bonding-z-to-x[40,42,0]: - x[42,0] + z[40,42,0] <= 0
 (4)bonding-z-to-x[40,42,1]: - x[42,1] + z[40,42,1] <= 0
 (4)bonding-z-to-x[40,41,0]: - x[41,0] + z[40,41,0] <= 0
 (4)bonding-z-to-x[40,41,1]: - x[41,1] + z[40,41,1] <= 0
 (4)bonding-z-to-x[40,5,0]: - x[5,0] + z[40,5,0] <= 0
 (4)bonding-z-to-x[40,5,1]: - x[5,1] + z[40,5,1] <= 0
 (4)bonding-z-to-x[40,6,0]: - x[6,0] + z[40,6,0] <= 0
 (4)bonding-z-to-x[40,6,1]: - x[6,1] + z[40,6,1] <= 0
 (4)bonding-z-to-x[41,6,0]: - x[6,0] + z[41,6,0] <= 0
 (4)bonding-z-to-x[41,6,1]: - x[6,1] + z[41,6,1] <= 0
 (4)bonding-z-to-x[42,15,0]: - x[15,0] + z[42,15,0] <= 0
 (4)bonding-z-to-x[42,15,1]: - x[15,1] + z[42,15,1] <= 0
 (4)bonding-z-to-x[42,6,0]: - x[6,0] + z[42,6,0] <= 0
 (4)bonding-z-to-x[42,6,1]: - x[6,1] + z[42,6,1] <= 0
 (4)bonding-z-to-x[43,5,0]: - x[5,0] + z[43,5,0] <= 0
 (4)bonding-z-to-x[43,5,1]: - x[5,1] + z[43,5,1] <= 0
 (5)bonding-z-to-x[0,2,0]: x[0,0] + x[2,0] - z[0,2,0] <= 1
 (5)bonding-z-to-x[0,2,1]: x[0,1] + x[2,1] - z[0,2,1] <= 1
 (5)bonding-z-to-x[0,8,0]: x[0,0] + x[8,0] - z[0,8,0] <= 1
 (5)bonding-z-to-x[0,8,1]: x[0,1] + x[8,1] - z[0,8,1] <= 1
 (5)bonding-z-to-x[1,7,0]: x[1,0] + x[7,0] - z[1,7,0] <= 1
 (5)bonding-z-to-x[1,7,1]: x[1,1] + x[7,1] - z[1,7,1] <= 1
 (5)bonding-z-to-x[2,3,0]: x[2,0] + x[3,0] - z[2,3,0] <= 1
 (5)bonding-z-to-x[2,3,1]: x[2,1] + x[3,1] - z[2,3,1] <= 1
 (5)bonding-z-to-x[2,1,0]: x[1,0] + x[2,0] - z[2,1,0] <= 1
 (5)bonding-z-to-x[2,1,1]: x[1,1] + x[2,1] - z[2,1,1] <= 1
 (5)bonding-z-to-x[2,9,0]: x[2,0] + x[9,0] - z[2,9,0] <= 1
 (5)bonding-z-to-x[2,9,1]: x[2,1] + x[9,1] - z[2,9,1] <= 1
 (5)bonding-z-to-x[3,9,0]: x[3,0] + x[9,0] - z[3,9,0] <= 1
 (5)bonding-z-to-x[3,9,1]: x[3,1] + x[9,1] - z[3,9,1] <= 1
 (5)bonding-z-to-x[4,9,0]: x[4,0] + x[9,0] - z[4,9,0] <= 1
 (5)bonding-z-to-x[4,9,1]: x[4,1] + x[9,1] - z[4,9,1] <= 1
 (5)bonding-z-to-x[5,6,0]: x[5,0] + x[6,0] - z[5,6,0] <= 1
 (5)bonding-z-to-x[5,6,1]: x[5,1] + x[6,1] - z[5,6,1] <= 1
 (5)bonding-z-to-x[6,4,0]: x[4,0] + x[6,0] - z[6,4,0] <= 1
 (5)bonding-z-to-x[6,4,1]: x[4,1] + x[6,1] - z[6,4,1] <= 1
 (5)bonding-z-to-x[6,8,0]: x[6,0] + x[8,0] - z[6,8,0] <= 1
 (5)bonding-z-to-x[6,8,1]: x[6,1] + x[8,1] - z[6,8,1] <= 1
 (5)bonding-z-to-x[8,7,0]: x[7,0] + x[8,0] - z[8,7,0] <= 1
 (5)bonding-z-to-x[8,7,1]: x[7,1] + x[8,1] - z[8,7,1] <= 1
 (5)bonding-z-to-x[9,7,0]: x[7,0] + x[9,0] - z[9,7,0] <= 1
 (5)bonding-z-to-x[9,7,1]: x[7,1] + x[9,1] - z[9,7,1] <= 1
 (5)bonding-z-to-x[10,3,0]: x[3,0] + x[10,0] - z[10,3,0] <= 1
 (5)bonding-z-to-x[10,3,1]: x[3,1] + x[10,1] - z[10,3,1] <= 1
 (5)bonding-z-to-x[11,0,0]: x[0,0] + x[11,0] - z[11,0,0] <= 1
 (5)bonding-z-to-x[11,0,1]: x[0,1] + x[11,1] - z[11,0,1] <= 1
 (5)bonding-z-to-x[12,0,0]: x[0,0] + x[12,0] - z[12,0,0] <= 1
 (5)bonding-z-to-x[12,0,1]: x[0,1] + x[12,1] - z[12,0,1] <= 1
 (5)bonding-z-to-x[13,0,0]: x[0,0] + x[13,0] - z[13,0,0] <= 1
 (5)bonding-z-to-x[13,0,1]: x[0,1] + x[13,1] - z[13,0,1] <= 1
 (5)bonding-z-to-x[14,0,0]: x[0,0] + x[14,0] - z[14,0,0] <= 1
 (5)bonding-z-to-x[14,0,1]: x[0,1] + x[14,1] - z[14,0,1] <= 1
 (5)bonding-z-to-x[15,6,0]: x[6,0] + x[15,0] - z[15,6,0] <= 1
 (5)bonding-z-to-x[15,6,1]: x[6,1] + x[15,1] - z[15,6,1] <= 1
 (5)bonding-z-to-x[17,12,0]: x[12,0] + x[17,0] - z[17,12,0] <= 1
 (5)bonding-z-to-x[17,12,1]: x[12,1] + x[17,1] - z[17,12,1] <= 1
 (5)bonding-z-to-x[17,0,0]: x[0,0] + x[17,0] - z[17,0,0] <= 1
 (5)bonding-z-to-x[17,0,1]: x[0,1] + x[17,1] - z[17,0,1] <= 1
 (5)bonding-z-to-x[17,2,0]: x[2,0] + x[17,0] - z[17,2,0] <= 1
 (5)bonding-z-to-x[17,2,1]: x[2,1] + x[17,1] - z[17,2,1] <= 1
 (5)bonding-z-to-x[17,1,0]: x[1,0] + x[17,0] - z[17,1,0] <= 1
 (5)bonding-z-to-x[17,1,1]: x[1,1] + x[17,1] - z[17,1,1] <= 1
 (5)bonding-z-to-x[19,13,0]: x[13,0] + x[19,0] - z[19,13,0] <= 1
 (5)bonding-z-to-x[19,13,1]: x[13,1] + x[19,1] - z[19,13,1] <= 1
 (5)bonding-z-to-x[19,0,0]: x[0,0] + x[19,0] - z[19,0,0] <= 1
 (5)bonding-z-to-x[19,0,1]: x[0,1] + x[19,1] - z[19,0,1] <= 1
 (5)bonding-z-to-x[19,1,0]: x[1,0] + x[19,0] - z[19,1,0] <= 1
 (5)bonding-z-to-x[19,1,1]: x[1,1] + x[19,1] - z[19,1,1] <= 1
 (5)bonding-z-to-x[20,10,0]: x[10,0] + x[20,0] - z[20,10,0] <= 1
 (5)bonding-z-to-x[20,10,1]: x[10,1] + x[20,1] - z[20,10,1] <= 1
 (5)bonding-z-to-x[20,3,0]: x[3,0] + x[20,0] - z[20,3,0] <= 1
 (5)bonding-z-to-x[20,3,1]: x[3,1] + x[20,1] - z[20,3,1] <= 1
 (5)bonding-z-to-x[21,12,0]: x[12,0] + x[21,0] - z[21,12,0] <= 1
 (5)bonding-z-to-x[21,12,1]: x[12,1] + x[21,1] - z[21,12,1] <= 1
 (5)bonding-z-to-x[21,0,0]: x[0,0] + x[21,0] - z[21,0,0] <= 1
 (5)bonding-z-to-x[21,0,1]: x[0,1] + x[21,1] - z[21,0,1] <= 1
 (5)bonding-z-to-x[22,2,0]: x[2,0] + x[22,0] - z[22,2,0] <= 1
 (5)bonding-z-to-x[22,2,1]: x[2,1] + x[22,1] - z[22,2,1] <= 1
 (5)bonding-z-to-x[25,0,0]: x[0,0] + x[25,0] - z[25,0,0] <= 1
 (5)bonding-z-to-x[25,0,1]: x[0,1] + x[25,1] - z[25,0,1] <= 1
 (5)bonding-z-to-x[25,2,0]: x[2,0] + x[25,0] - z[25,2,0] <= 1
 (5)bonding-z-to-x[25,2,1]: x[2,1] + x[25,1] - z[25,2,1] <= 1
 (5)bonding-z-to-x[26,13,0]: x[13,0] + x[26,0] - z[26,13,0] <= 1
 (5)bonding-z-to-x[26,13,1]: x[13,1] + x[26,1] - z[26,13,1] <= 1
 (5)bonding-z-to-x[26,0,0]: x[0,0] + x[26,0] - z[26,0,0] <= 1
 (5)bonding-z-to-x[26,0,1]: x[0,1] + x[26,1] - z[26,0,1] <= 1
 (5)bonding-z-to-x[26,2,0]: x[2,0] + x[26,0] - z[26,2,0] <= 1
 (5)bonding-z-to-x[26,2,1]: x[2,1] + x[26,1] - z[26,2,1] <= 1
 (5)bonding-z-to-x[27,0,0]: x[0,0] + x[27,0] - z[27,0,0] <= 1
 (5)bonding-z-to-x[27,0,1]: x[0,1] + x[27,1] - z[27,0,1] <= 1
 (5)bonding-z-to-x[27,2,0]: x[2,0] + x[27,0] - z[27,2,0] <= 1
 (5)bonding-z-to-x[27,2,1]: x[2,1] + x[27,1] - z[27,2,1] <= 1
 (5)bonding-z-to-x[28,13,0]: x[13,0] + x[28,0] - z[28,13,0] <= 1
 (5)bonding-z-to-x[28,13,1]: x[13,1] + x[28,1] - z[28,13,1] <= 1
 (5)bonding-z-to-x[28,2,0]: x[2,0] + x[28,0] - z[28,2,0] <= 1
 (5)bonding-z-to-x[28,2,1]: x[2,1] + x[28,1] - z[28,2,1] <= 1
 (5)bonding-z-to-x[28,0,0]: x[0,0] + x[28,0] - z[28,0,0] <= 1
 (5)bonding-z-to-x[28,0,1]: x[0,1] + x[28,1] - z[28,0,1] <= 1
 (5)bonding-z-to-x[30,12,0]: x[12,0] + x[30,0] - z[30,12,0] <= 1
 (5)bonding-z-to-x[30,12,1]: x[12,1] + x[30,1] - z[30,12,1] <= 1
 (5)bonding-z-to-x[30,0,0]: x[0,0] + x[30,0] - z[30,0,0] <= 1
 (5)bonding-z-to-x[30,0,1]: x[0,1] + x[30,1] - z[30,0,1] <= 1
 (5)bonding-z-to-x[31,0,0]: x[0,0] + x[31,0] - z[31,0,0] <= 1
 (5)bonding-z-to-x[31,0,1]: x[0,1] + x[31,1] - z[31,0,1] <= 1
 (5)bonding-z-to-x[32,13,0]: x[13,0] + x[32,0] - z[32,13,0] <= 1
 (5)bonding-z-to-x[32,13,1]: x[13,1] + x[32,1] - z[32,13,1] <= 1
 (5)bonding-z-to-x[32,0,0]: x[0,0] + x[32,0] - z[32,0,0] <= 1
 (5)bonding-z-to-x[32,0,1]: x[0,1] + x[32,1] - z[32,0,1] <= 1
 (5)bonding-z-to-x[33,0,0]: x[0,0] + x[33,0] - z[33,0,0] <= 1
 (5)bonding-z-to-x[33,0,1]: x[0,1] + x[33,1] - z[33,0,1] <= 1
 (5)bonding-z-to-x[34,36,0]: x[34,0] + x[36,0] - z[34,36,0] <= 1
 (5)bonding-z-to-x[34,36,1]: x[34,1] + x[36,1] - z[34,36,1] <= 1
 (5)bonding-z-to-x[34,35,0]: x[34,0] + x[35,0] - z[34,35,0] <= 1
 (5)bonding-z-to-x[34,35,1]: x[34,1] + x[35,1] - z[34,35,1] <= 1
 (5)bonding-z-to-x[34,0,0]: x[0,0] + x[34,0] - z[34,0,0] <= 1
 (5)bonding-z-to-x[34,0,1]: x[0,1] + x[34,1] - z[34,0,1] <= 1
 (5)bonding-z-to-x[35,0,0]: x[0,0] + x[35,0] - z[35,0,0] <= 1
 (5)bonding-z-to-x[35,0,1]: x[0,1] + x[35,1] - z[35,0,1] <= 1
 (5)bonding-z-to-x[36,11,0]: x[11,0] + x[36,0] - z[36,11,0] <= 1
 (5)bonding-z-to-x[36,11,1]: x[11,1] + x[36,1] - z[36,11,1] <= 1
 (5)bonding-z-to-x[36,0,0]: x[0,0] + x[36,0] - z[36,0,0] <= 1
 (5)bonding-z-to-x[36,0,1]: x[0,1] + x[36,1] - z[36,0,1] <= 1
 (5)bonding-z-to-x[37,12,0]: x[12,0] + x[37,0] - z[37,12,0] <= 1
 (5)bonding-z-to-x[37,12,1]: x[12,1] + x[37,1] - z[37,12,1] <= 1
 (5)bonding-z-to-x[37,0,0]: x[0,0] + x[37,0] - z[37,0,0] <= 1
 (5)bonding-z-to-x[37,0,1]: x[0,1] + x[37,1] - z[37,0,1] <= 1
 (5)bonding-z-to-x[38,13,0]: x[13,0] + x[38,0] - z[38,13,0] <= 1
 (5)bonding-z-to-x[38,13,1]: x[13,1] + x[38,1] - z[38,13,1] <= 1
 (5)bonding-z-to-x[38,0,0]: x[0,0] + x[38,0] - z[38,0,0] <= 1
 (5)bonding-z-to-x[38,0,1]: x[0,1] + x[38,1] - z[38,0,1] <= 1
 (5)bonding-z-to-x[39,12,0]: x[12,0] + x[39,0] - z[39,12,0] <= 1
 (5)bonding-z-to-x[39,12,1]: x[12,1] + x[39,1] - z[39,12,1] <= 1
 (5)bonding-z-to-x[39,0,0]: x[0,0] + x[39,0] - z[39,0,0] <= 1
 (5)bonding-z-to-x[39,0,1]: x[0,1] + x[39,1] - z[39,0,1] <= 1
 (5)bonding-z-to-x[40,42,0]: x[40,0] + x[42,0] - z[40,42,0] <= 1
 (5)bonding-z-to-x[40,42,1]: x[40,1] + x[42,1] - z[40,42,1] <= 1
 (5)bonding-z-to-x[40,41,0]: x[40,0] + x[41,0] - z[40,41,0] <= 1
 (5)bonding-z-to-x[40,41,1]: x[40,1] + x[41,1] - z[40,41,1] <= 1
 (5)bonding-z-to-x[40,5,0]: x[5,0] + x[40,0] - z[40,5,0] <= 1
 (5)bonding-z-to-x[40,5,1]: x[5,1] + x[40,1] - z[40,5,1] <= 1
 (5)bonding-z-to-x[40,6,0]: x[6,0] + x[40,0] - z[40,6,0] <= 1
 (5)bonding-z-to-x[40,6,1]: x[6,1] + x[40,1] - z[40,6,1] <= 1
 (5)bonding-z-to-x[41,6,0]: x[6,0] + x[41,0] - z[41,6,0] <= 1
 (5)bonding-z-to-x[41,6,1]: x[6,1] + x[41,1] - z[41,6,1] <= 1
 (5)bonding-z-to-x[42,15,0]: x[15,0] + x[42,0] - z[42,15,0] <= 1
 (5)bonding-z-to-x[42,15,1]: x[15,1] + x[42,1] - z[42,15,1] <= 1
 (5)bonding-z-to-x[42,6,0]: x[6,0] + x[42,0] - z[42,6,0] <= 1
 (5)bonding-z-to-x[42,6,1]: x[6,1] + x[42,1] - z[42,6,1] <= 1
 (5)bonding-z-to-x[43,5,0]: x[5,0] + x[43,0] - z[43,5,0] <= 1
 (5)bonding-z-to-x[43,5,1]: x[5,1] + x[43,1] - z[43,5,1] <= 1
 (6)bonding-y-to-z[0,2]: - z[0,2,0] - z[0,2,1] + y[0,2] = 0
 (6)bonding-y-to-z[0,8]: - z[0,8,0] - z[0,8,1] + y[0,8] = 0
 (6)bonding-y-to-z[1,7]: - z[1,7,0] - z[1,7,1] + y[1,7] = 0
 (6)bonding-y-to-z[2,3]: - z[2,3,0] - z[2,3,1] + y[2,3] = 0
 (6)bonding-y-to-z[2,1]: - z[2,1,0] - z[2,1,1] + y[2,1] = 0
 (6)bonding-y-to-z[2,9]: - z[2,9,0] - z[2,9,1] + y[2,9] = 0
 (6)bonding-y-to-z[3,9]: - z[3,9,0] - z[3,9,1] + y[3,9] = 0
 (6)bonding-y-to-z[4,9]: - z[4,9,0] - z[4,9,1] + y[4,9] = 0
 (6)bonding-y-to-z[5,6]: - z[5,6,0] - z[5,6,1] + y[5,6] = 0
 (6)bonding-y-to-z[6,4]: - z[6,4,0] - z[6,4,1] + y[6,4] = 0
 (6)bonding-y-to-z[6,8]: - z[6,8,0] - z[6,8,1] + y[6,8] = 0
 (6)bonding-y-to-z[8,7]: - z[8,7,0] - z[8,7,1] + y[8,7] = 0
 (6)bonding-y-to-z[9,7]: - z[9,7,0] - z[9,7,1] + y[9,7] = 0
 (6)bonding-y-to-z[10,3]: - z[10,3,0] - z[10,3,1] + y[10,3] = 0
 (6)bonding-y-to-z[11,0]: - z[11,0,0] - z[11,0,1] + y[11,0] = 0
 (6)bonding-y-to-z[12,0]: - z[12,0,0] - z[12,0,1] + y[12,0] = 0
 (6)bonding-y-to-z[13,0]: - z[13,0,0] - z[13,0,1] + y[13,0] = 0
 (6)bonding-y-to-z[14,0]: - z[14,0,0] - z[14,0,1] + y[14,0] = 0
 (6)bonding-y-to-z[15,6]: - z[15,6,0] - z[15,6,1] + y[15,6] = 0
 (6)bonding-y-to-z[17,12]: - z[17,12,0] - z[17,12,1] + y[17,12] = 0
 (6)bonding-y-to-z[17,0]: - z[17,0,0] - z[17,0,1] + y[17,0] = 0
 (6)bonding-y-to-z[17,2]: - z[17,2,0] - z[17,2,1] + y[17,2] = 0
 (6)bonding-y-to-z[17,1]: - z[17,1,0] - z[17,1,1] + y[17,1] = 0
 (6)bonding-y-to-z[19,13]: - z[19,13,0] - z[19,13,1] + y[19,13] = 0
 (6)bonding-y-to-z[19,0]: - z[19,0,0] - z[19,0,1] + y[19,0] = 0
 (6)bonding-y-to-z[19,1]: - z[19,1,0] - z[19,1,1] + y[19,1] = 0
 (6)bonding-y-to-z[20,10]: - z[20,10,0] - z[20,10,1] + y[20,10] = 0
 (6)bonding-y-to-z[20,3]: - z[20,3,0] - z[20,3,1] + y[20,3] = 0
 (6)bonding-y-to-z[21,12]: - z[21,12,0] - z[21,12,1] + y[21,12] = 0
 (6)bonding-y-to-z[21,0]: - z[21,0,0] - z[21,0,1] + y[21,0] = 0
 (6)bonding-y-to-z[22,2]: - z[22,2,0] - z[22,2,1] + y[22,2] = 0
 (6)bonding-y-to-z[25,0]: - z[25,0,0] - z[25,0,1] + y[25,0] = 0
 (6)bonding-y-to-z[25,2]: - z[25,2,0] - z[25,2,1] + y[25,2] = 0
 (6)bonding-y-to-z[26,13]: - z[26,13,0] - z[26,13,1] + y[26,13] = 0
 (6)bonding-y-to-z[26,0]: - z[26,0,0] - z[26,0,1] + y[26,0] = 0
 (6)bonding-y-to-z[26,2]: - z[26,2,0] - z[26,2,1] + y[26,2] = 0
 (6)bonding-y-to-z[27,0]: - z[27,0,0] - z[27,0,1] + y[27,0] = 0
 (6)bonding-y-to-z[27,2]: - z[27,2,0] - z[27,2,1] + y[27,2] = 0
 (6)bonding-y-to-z[28,13]: - z[28,13,0] - z[28,13,1] + y[28,13] = 0
 (6)bonding-y-to-z[28,2]: - z[28,2,0] - z[28,2,1] + y[28,2] = 0
 (6)bonding-y-to-z[28,0]: - z[28,0,0] - z[28,0,1] + y[28,0] = 0
 (6)bonding-y-to-z[30,12]: - z[30,12,0] - z[30,12,1] + y[30,12] = 0
 (6)bonding-y-to-z[30,0]: - z[30,0,0] - z[30,0,1] + y[30,0] = 0
 (6)bonding-y-to-z[31,0]: - z[31,0,0] - z[31,0,1] + y[31,0] = 0
 (6)bonding-y-to-z[32,13]: - z[32,13,0] - z[32,13,1] + y[32,13] = 0
 (6)bonding-y-to-z[32,0]: - z[32,0,0] - z[32,0,1] + y[32,0] = 0
 (6)bonding-y-to-z[33,0]: - z[33,0,0] - z[33,0,1] + y[33,0] = 0
 (6)bonding-y-to-z[34,36]: - z[34,36,0] - z[34,36,1] + y[34,36] = 0
 (6)bonding-y-to-z[34,35]: - z[34,35,0] - z[34,35,1] + y[34,35] = 0
 (6)bonding-y-to-z[34,0]: - z[34,0,0] - z[34,0,1] + y[34,0] = 0
 (6)bonding-y-to-z[35,0]: - z[35,0,0] - z[35,0,1] + y[35,0] = 0
 (6)bonding-y-to-z[36,11]: - z[36,11,0] - z[36,11,1] + y[36,11] = 0
 (6)bonding-y-to-z[36,0]: - z[36,0,0] - z[36,0,1] + y[36,0] = 0
 (6)bonding-y-to-z[37,12]: - z[37,12,0] - z[37,12,1] + y[37,12] = 0
 (6)bonding-y-to-z[37,0]: - z[37,0,0] - z[37,0,1] + y[37,0] = 0
 (6)bonding-y-to-z[38,13]: - z[38,13,0] - z[38,13,1] + y[38,13] = 0
 (6)bonding-y-to-z[38,0]: - z[38,0,0] - z[38,0,1] + y[38,0] = 0
 (6)bonding-y-to-z[39,12]: - z[39,12,0] - z[39,12,1] + y[39,12] = 0
 (6)bonding-y-to-z[39,0]: - z[39,0,0] - z[39,0,1] + y[39,0] = 0
 (6)bonding-y-to-z[40,42]: - z[40,42,0] - z[40,42,1] + y[40,42] = 0
 (6)bonding-y-to-z[40,41]: - z[40,41,0] - z[40,41,1] + y[40,41] = 0
 (6)bonding-y-to-z[40,5]: - z[40,5,0] - z[40,5,1] + y[40,5] = 0
 (6)bonding-y-to-z[40,6]: - z[40,6,0] - z[40,6,1] + y[40,6] = 0
 (6)bonding-y-to-z[41,6]: - z[41,6,0] - z[41,6,1] + y[41,6] = 0
 (6)bonding-y-to-z[42,15]: - z[42,15,0] - z[42,15,1] + y[42,15] = 0
 (6)bonding-y-to-z[42,6]: - z[42,6,0] - z[42,6,1] + y[42,6] = 0
 (6)bonding-y-to-z[43,5]: - z[43,5,0] - z[43,5,1] + y[43,5] = 0
 (7)bonding-x-to-entity-clusters[0,0]: x[0,0] = 1
 (7)bonding-x-to-entity-clusters[0,6]: x[6,0] = 1
 (7)bonding-x-to-entity-clusters[1,3]: x[3,1] = 1
 (8)bonding-y-to-communities[1,7]: y[1,7] = 1
 (8)bonding-y-to-communities[3,9]: y[3,9] = 1
 (8)bonding-y-to-communities[4,9]: y[4,9] = 1
 (8)bonding-y-to-communities[5,6]: y[5,6] = 1
 (8)bonding-y-to-communities[8,7]: y[8,7] = 1
 (8)bonding-y-to-communities[10,3]: y[10,3] = 1
 (8)bonding-y-to-communities[11,0]: y[11,0] = 1
 (8)bonding-y-to-communities[12,0]: y[12,0] = 1
 (8)bonding-y-to-communities[13,0]: y[13,0] = 1
 (8)bonding-y-to-communities[14,0]: y[14,0] = 1
 (8)bonding-y-to-communities[15,6]: y[15,6] = 1
 (8)bonding-y-to-communities[17,1]: y[17,1] = 1
 (8)bonding-y-to-communities[19,1]: y[19,1] = 1
 (8)bonding-y-to-communities[20,10]: y[20,10] = 1
 (8)bonding-y-to-communities[20,3]: y[20,3] = 1
 (8)bonding-y-to-communities[21,12]: y[21,12] = 1
 (8)bonding-y-to-communities[21,0]: y[21,0] = 1
 (8)bonding-y-to-communities[22,2]: y[22,2] = 1
 (8)bonding-y-to-communities[25,2]: y[25,2] = 1
 (8)bonding-y-to-communities[26,2]: y[26,2] = 1
 (8)bonding-y-to-communities[27,2]: y[27,2] = 1
 (8)bonding-y-to-communities[28,2]: y[28,2] = 1
 (8)bonding-y-to-communities[30,12]: y[30,12] = 1
 (8)bonding-y-to-communities[30,0]: y[30,0] = 1
 (8)bonding-y-to-communities[31,0]: y[31,0] = 1
 (8)bonding-y-to-communities[32,13]: y[32,13] = 1
 (8)bonding-y-to-communities[32,0]: y[32,0] = 1
 (8)bonding-y-to-communities[33,0]: y[33,0] = 1
 (8)bonding-y-to-communities[34,36]: y[34,36] = 1
 (8)bonding-y-to-communities[34,35]: y[34,35] = 1
 (8)bonding-y-to-communities[34,0]: y[34,0] = 1
 (8)bonding-y-to-communities[35,0]: y[35,0] = 1
 (8)bonding-y-to-communities[36,11]: y[36,11] = 1
 (8)bonding-y-to-communities[36,0]: y[36,0] = 1
 (8)bonding-y-to-communities[37,12]: y[37,12] = 1
 (8)bonding-y-to-communities[37,0]: y[37,0] = 1
 (8)bonding-y-to-communities[38,13]: y[38,13] = 1
 (8)bonding-y-to-communities[38,0]: y[38,0] = 1
 (8)bonding-y-to-communities[39,12]: y[39,12] = 1
 (8)bonding-y-to-communities[39,0]: y[39,0] = 1
 (8)bonding-y-to-communities[40,42]: y[40,42] = 1
 (8)bonding-y-to-communities[40,41]: y[40,41] = 1
 (8)bonding-y-to-communities[40,5]: y[40,5] = 1
 (8)bonding-y-to-communities[40,6]: y[40,6] = 1
 (8)bonding-y-to-communities[41,6]: y[41,6] = 1
 (8)bonding-y-to-communities[42,15]: y[42,15] = 1
 (8)bonding-y-to-communities[42,6]: y[42,6] = 1
 (8)bonding-y-to-communities[43,5]: y[43,5] = 1
Bounds
 Constant = 1
Binaries
 x[0,0] x[0,1] x[1,0] x[1,1] x[2,0] x[2,1] x[3,0] x[3,1] x[4,0] x[4,1]
 x[5,0] x[5,1] x[6,0] x[6,1] x[7,0] x[7,1] x[8,0] x[8,1] x[9,0] x[9,1]
 x[10,0] x[10,1] x[11,0] x[11,1] x[12,0] x[12,1] x[13,0] x[13,1] x[14,0]
 x[14,1] x[15,0] x[15,1] x[17,0] x[17,1] x[19,0] x[19,1] x[20,0] x[20,1]
 x[21,0] x[21,1] x[22,0] x[22,1] x[25,0] x[25,1] x[26,0] x[26,1] x[27,0]
 x[27,1] x[28,0] x[28,1] x[30,0] x[30,1] x[31,0] x[31,1] x[32,0] x[32,1]
 x[33,0] x[33,1] x[34,0] x[34,1] x[35,0] x[35,1] x[36,0] x[36,1] x[37,0]
 x[37,1] x[38,0] x[38,1] x[39,0] x[39,1] x[40,0] x[40,1] x[41,0] x[41,1]
 x[42,0] x[42,1] x[43,0] x[43,1] z[0,2,0] z[0,2,1] z[0,8,0] z[0,8,1]
 z[1,7,0] z[1,7,1] z[2,3,0] z[2,3,1] z[2,1,0] z[2,1,1] z[2,9,0] z[2,9,1]
 z[3,9,0] z[3,9,1] z[4,9,0] z[4,9,1] z[5,6,0] z[5,6,1] z[6,4,0] z[6,4,1]
 z[6,8,0] z[6,8,1] z[8,7,0] z[8,7,1] z[9,7,0] z[9,7,1] z[10,3,0] z[10,3,1]
 z[11,0,0] z[11,0,1] z[12,0,0] z[12,0,1] z[13,0,0] z[13,0,1] z[14,0,0]
 z[14,0,1] z[15,6,0] z[15,6,1] z[17,12,0] z[17,12,1] z[17,0,0] z[17,0,1]
 z[17,2,0] z[17,2,1] z[17,1,0] z[17,1,1] z[19,13,0] z[19,13,1] z[19,0,0]
 z[19,0,1] z[19,1,0] z[19,1,1] z[20,10,0] z[20,10,1] z[20,3,0] z[20,3,1]
 z[21,12,0] z[21,12,1] z[21,0,0] z[21,0,1] z[22,2,0] z[22,2,1] z[25,0,0]
 z[25,0,1] z[25,2,0] z[25,2,1] z[26,13,0] z[26,13,1] z[26,0,0] z[26,0,1]
 z[26,2,0] z[26,2,1] z[27,0,0] z[27,0,1] z[27,2,0] z[27,2,1] z[28,13,0]
 z[28,13,1] z[28,2,0] z[28,2,1] z[28,0,0] z[28,0,1] z[30,12,0] z[30,12,1]
 z[30,0,0] z[30,0,1] z[31,0,0] z[31,0,1] z[32,13,0] z[32,13,1] z[32,0,0]
 z[32,0,1] z[33,0,0] z[33,0,1] z[34,36,0] z[34,36,1] z[34,35,0] z[34,35,1]
 z[34,0,0] z[34,0,1] z[35,0,0] z[35,0,1] z[36,11,0] z[36,11,1] z[36,0,0]
 z[36,0,1] z[37,12,0] z[37,12,1] z[37,0,0] z[37,0,1] z[38,13,0] z[38,13,1]
 z[38,0,0] z[38,0,1] z[39,12,0] z[39,12,1] z[39,0,0] z[39,0,1] z[40,42,0]
 z[40,42,1] z[40,41,0] z[40,41,1] z[40,5,0] z[40,5,1] z[40,6,0] z[40,6,1]
 z[41,6,0] z[41,6,1] z[42,15,0] z[42,15,1] z[42,6,0] z[42,6,1] z[43,5,0]
 z[43,5,1] y[0,2] y[0,8] y[1,7] y[2,3] y[2,1] y[2,9] y[3,9] y[4,9] y[5,6]
 y[6,4] y[6,8] y[8,7] y[9,7] y[10,3] y[11,0] y[12,0] y[13,0] y[14,0]
 y[15,6] y[17,12] y[17,0] y[17,2] y[17,1] y[19,13] y[19,0] y[19,1] y[20,10]
 y[20,3] y[21,12] y[21,0] y[22,2] y[25,0] y[25,2] y[26,13] y[26,0] y[26,2]
 y[27,0] y[27,2] y[28,13] y[28,2] y[28,0] y[30,12] y[30,0] y[31,0] y[32,13]
 y[32,0] y[33,0] y[34,36] y[34,35] y[34,0] y[35,0] y[36,11] y[36,0]
 y[37,12] y[37,0] y[38,13] y[38,0] y[39,12] y[39,0] y[40,42] y[40,41]
 y[40,5] y[40,6] y[41,6] y[42,15] y[42,6] y[43,5]
End
